sat

(objectives
 ((bvadd PriceProv5 (bvadd PriceProv4 (bvadd PriceProv3 (bvadd PriceProv1 PriceProv2)))) (_ bv1079 32))
)
;; statistics
(
 :cnf-variables 1968
 :cnf-literals 9245
 :cnf-clauses 3905
 :sat-checks 13
 :sat-restarts 27
 :sat-decisions 36552
 :sat-random-decisions 19
 :sat-propagations 26601479
 :sat-theory-propagations 0
 :sat-watched-clauses-visited 30045300
 :sat-binary-watched-clauses-visited 17538393
 :sat-conflicts 5467
 :sat-theory-conflicts 0
 :theory-necessary-interface-equalities 0
 :theory-extra-interface-equalities 0
 :euf-total-calls 38645
 :euf-complete-calls 14
 :euf-conflicts 0
 :euf-implications 0
 :euf-explanations 0
 :euf-egraph-nodes-created 14304
 :euf-egraph-nodes-deleted 11110
 :euf-num-asserted-equalities 437811
 :euf-num-asserted-inequalities 332415
 :euf-num-merges 683760
 :euf-num-merges-undone 683760
 :euf-num-atoms-retold 2400
 :la-total-calls 38645
 :la-complete-calls 14
 :la-conflicts 0
 :la-implications 0
 :la-explanations 0
 :la-num-equalities-split 0
 :la-num-tableau-rows 0
 :la-num-tableau-variables 0
 :bv-total-calls 38645
 :bv-complete-calls 14
 :bv-conflicts 0
 :bv-implications 0
 :bv-explanations 0
 :fp-total-calls 38645
 :fp-complete-calls 14
 :fp-conflicts 0
 :fp-implications 0
 :fp-explanations 0
 :arr-total-calls 38645
 :arr-complete-calls 14
 :arr-conflicts 0
 :arr-implications 0
 :arr-explanations 0
 :arr-write-lemmas-added 0
 :arr-row-lemmas-added 0
 :arr-ext-lemmas-added 0
 :arr-const-lemmas-added 0
 :na-total-calls 38645
 :na-complete-calls 14
 :na-conflicts 0
 :na-implications 0
 :na-explanations 0
 :na-num_nonlinear_multiplications 0
 :na-num_axiom_checks 0
 :na-num_zero_lemmas 0
 :na-num_sign_lemmas 0
 :na-num_neutral_lemmas 0
 :na-num_proportionality_lemmas 0
 :na-num_bound_lemmas 0
 :na-num_tangent_lemmas 0
 :na-num_monotonicity_lemmas 0
 :na-num_sat_checks 0
 :na-axiom_check_time 0.000
 :na-sat_check_time 0.000
 :time-seconds 3.394
 :memory-mb 39.040
)
